Route #1: 9 17 16 15 36 38 7
Route #2: 10 31 12 8 2 23 1
Route #3: 33 20 21 5 18 19 14 28 37
Route #4: 41 35 4
Route #5: 11 13 30 29 32 25 27 40
Route #6: 3 22 24 6 42 34 39 26
Cost 742
Time 0.064175
